
******************************************************************************
This program contains Ipopt, a library for large-scale nonlinear optimization.
 Ipopt is released as open source code under the Eclipse Public License (EPL).
         For more information visit http://projects.coin-or.org/Ipopt
******************************************************************************

This is Ipopt version 3.12.6, running with linear solver ma57.

Number of nonzeros in equality constraint Jacobian...:    35849
Number of nonzeros in inequality constraint Jacobian.:      568
Number of nonzeros in Lagrangian Hessian.............:    42197

Reallocating memory for MA57: lfact (1205360)
Total number of variables............................:     1247
                     variables with only lower bounds:        0
                variables with lower and upper bounds:     1247
                     variables with only upper bounds:        0
Total number of equality constraints.................:      521
Total number of inequality constraints...............:      191
        inequality constraints with only lower bounds:        0
   inequality constraints with lower and upper bounds:        0
        inequality constraints with only upper bounds:      191

iter    objective    inf_pr   inf_du lg(mu)  ||d||  lg(rg) alpha_du alpha_pr  ls
   0 -9.6730000e-01 1.90e-01 1.00e+00  -1.0 0.00e+00    -  0.00e+00 0.00e+00   0
   1 -5.1786106e-01 2.73e-01 2.20e+01  -1.0 4.74e-01    -  2.58e-02 6.23e-01f  1
   2 -4.5291227e-01 1.23e-01 2.21e+01  -1.0 1.44e-01   2.0 9.92e-01 5.82e-01f  1
   3 -3.1506537e-01 8.76e-02 1.74e+01  -1.0 6.00e-01    -  2.86e-01 2.66e-01f  1
   4 -1.1474488e-01 6.62e-02 1.48e+01  -1.0 9.40e-01    -  2.80e-01 2.27e-01f  1
   5  1.6450334e-01 5.07e-02 1.18e+01  -1.0 1.32e+00    -  8.65e-02 2.19e-01f  1
   6  3.3993026e-01 4.38e-02 1.04e+01  -1.0 1.37e+00    -  2.62e-02 1.33e-01f  1
   7  3.4468569e-01 4.21e-02 2.05e+01  -1.0 1.14e+00   1.5 4.09e-01 3.61e-02h  1
   8  1.8376475e+00 1.84e-03 6.62e+00  -1.0 1.50e+00    -  8.76e-01 1.00e+00f  1
   9  8.7425669e+00 3.20e-04 1.38e+00  -1.0 6.91e+00    -  5.34e-01 1.00e+00f  1
iter    objective    inf_pr   inf_du lg(mu)  ||d||  lg(rg) alpha_du alpha_pr  ls
  10  1.4121504e+01 1.19e-05 2.79e-02  -1.0 5.38e+00    -  9.83e-01 1.00e+00f  1
  11 -6.4528623e-01 6.19e-08 1.46e+00  -2.5 1.48e+01    -  8.70e-01 1.00e+00f  1
  12 -7.4164285e-01 6.30e-05 1.36e-02  -2.5 9.59e-02    -  1.00e+00 1.00e+00f  1
  13 -9.0026595e-01 2.42e-04 1.45e-01  -3.8 4.86e-01    -  8.16e-01 3.25e-01f  1
  14 -9.0570093e-01 6.63e-04 4.63e-02  -3.8 2.64e-02    -  9.48e-01 1.00e+00h  1
Reallocating memory for MA57: lfact (1298874)
  15 -9.0918184e-01 5.58e-07 4.25e-02  -3.8 3.82e-03   1.0 1.00e+00 1.00e+00h  1
  16 -9.0970020e-01 1.35e-06 3.59e-03  -3.8 9.68e-04   0.6 1.00e+00 1.00e+00h  1
  17 -9.1066657e-01 9.31e-06 3.37e-03  -3.8 2.73e-03   0.1 1.00e+00 1.00e+00h  1
  18 -9.1314635e-01 5.13e-05 2.94e-03  -3.8 7.21e-03  -0.4 1.00e+00 1.00e+00h  1
  19 -9.1825620e-01 2.36e-04 2.24e-03  -3.8 1.69e-02  -0.9 1.00e+00 1.00e+00h  1
iter    objective    inf_pr   inf_du lg(mu)  ||d||  lg(rg) alpha_du alpha_pr  ls
  20 -9.2173380e-01 8.94e-04 2.47e-03  -3.8 1.10e-01  -1.3 7.01e-01 3.28e-01h  2
  21 -9.2840592e-01 2.37e-04 2.01e-03  -3.8 1.65e-02  -0.9 1.00e+00 1.00e+00h  1
  22 -9.3716400e-01 1.29e-03 2.46e-03  -3.8 3.91e-02  -1.4 1.00e+00 1.00e+00h  1
  23 -9.4794005e-01 9.93e-04 3.52e-03  -3.8 6.30e-02  -1.9 1.00e+00 1.00e+00H  1
  24 -9.4798145e-01 7.06e-04 2.97e-03  -3.8 2.17e-01  -1.4 2.47e-01 1.61e-01h  2
  25 -9.4812173e-01 9.88e-05 2.67e-03  -3.8 2.81e-02  -1.0 1.00e+00 1.00e+00h  1
  26 -9.5029362e-01 3.89e-04 2.12e-03  -3.8 5.65e-02  -1.5 1.00e+00 1.00e+00h  1
  27 -9.5080696e-01 4.53e-04 8.56e-03  -3.8 4.21e-01    -  2.58e-01 6.06e-02h  3
  28 -9.5147868e-01 2.96e-05 8.50e-04  -3.8 1.02e-02  -1.1 1.00e+00 1.00e+00h  1
  29 -9.5705790e-01 1.34e-03 4.90e-03  -5.7 7.06e-01    -  1.21e-01 9.27e-02h  1
iter    objective    inf_pr   inf_du lg(mu)  ||d||  lg(rg) alpha_du alpha_pr  ls
  30 -9.8519010e-01 6.62e-03 1.00e-02  -5.7 9.49e-02  -1.5 7.05e-01 8.59e-01h  1
  31 -9.9515916e-01 4.08e-03 3.77e-03  -5.7 3.96e-02  -1.1 7.30e-01 5.40e-01h  1
  32 -9.9955110e-01 3.54e-03 3.03e-03  -5.7 1.31e-01  -1.6 3.53e-01 1.68e-01f  1
  33 -1.0055553e+00 2.20e-03 4.05e-03  -5.7 2.62e-02  -1.2 1.00e+00 4.45e-01h  1
  34 -1.0111724e+00 4.09e-03 2.80e-03  -5.7 1.33e-01  -1.6 5.80e-01 3.04e-01f  1
  35 -1.0145955e+00 3.10e-03 2.18e-03  -5.7 3.48e-02  -1.2 1.00e+00 4.61e-01f  1
  36 -1.0159037e+00 3.39e-03 5.07e-03  -5.7 1.24e-01  -1.7 5.62e-01 9.67e-02f  1
  37 -1.0174465e+00 2.32e-03 9.30e-03  -5.7 3.10e-02  -1.3 1.00e+00 3.86e-01f  1
  38 -1.0190813e+00 3.18e-03 7.99e-03  -5.7 2.54e-01  -1.7 2.28e-01 9.77e-02f  1
Reallocating memory for MA57: lfact (1365724)
  39 -1.0202673e+00 1.89e-03 5.61e-03  -5.7 1.99e-02  -1.3 9.70e-01 4.12e-01f  1
iter    objective    inf_pr   inf_du lg(mu)  ||d||  lg(rg) alpha_du alpha_pr  ls
  40 -1.0221255e+00 2.98e-03 4.66e-03  -5.7 1.81e-01  -1.8 1.69e-01 1.90e-01f  1
  41 -1.0225901e+00 2.55e-03 1.09e-02  -5.7 2.32e-02  -1.4 1.00e+00 1.46e-01f  1
  42 -1.0239415e+00 1.94e-03 3.40e-02  -5.7 6.65e-02  -1.9 1.00e+00 2.51e-01f  1
  43 -1.0251871e+00 6.40e-04 5.65e-03  -5.7 1.89e-02  -1.4 1.00e+00 8.33e-01f  1
  44 -1.0259354e+00 1.95e-03 8.71e-03  -5.7 7.08e-02  -1.9 1.00e+00 5.33e-01f  1
  45 -1.0260877e+00 2.25e-03 9.80e-03  -5.7 1.74e+00  -2.4 4.70e-02 1.31e-02f  1
  46 -1.0263077e+00 2.21e-03 6.94e-03  -5.7 7.42e-02  -2.0 9.52e-01 3.22e-01f  1
  47 -1.0262161e+00 2.27e-03 6.27e-03  -5.7 3.11e-01  -2.4 1.11e-01 3.95e-02f  4
  48 -1.0264195e+00 1.30e-03 4.09e-03  -5.7 2.37e-02  -2.0 1.00e+00 4.80e-01h  1
  49 -1.0266536e+00 8.36e-05 2.21e-04  -5.7 8.51e-03  -1.6 1.00e+00 1.00e+00f  1
iter    objective    inf_pr   inf_du lg(mu)  ||d||  lg(rg) alpha_du alpha_pr  ls
  50 -1.0269387e+00 1.32e-03 7.79e-04  -5.7 4.26e-02  -2.1 1.00e+00 6.89e-01h  1
  51 -1.0269330e+00 1.39e-04 4.74e-05  -5.7 1.26e-02  -2.5 1.00e+00 1.00e+00f  1
  52 -1.0270031e+00 6.50e-05 5.81e-05  -5.7 7.92e-03  -2.1 1.00e+00 1.00e+00h  1
  53 -1.0270324e+00 4.90e-06 6.93e-06  -5.7 2.82e-03  -2.6 1.00e+00 1.00e+00h  1
  54 -1.0281570e+00 3.31e-05 6.18e-05  -8.6 4.46e-03  -2.2 9.36e-01 9.76e-01h  1
Reallocating memory for MA57: lfact (1489013)
  55 -1.0281986e+00 1.81e-06 1.21e-05  -8.6 4.89e-04  -2.6 1.00e+00 9.53e-01h  1
Reallocating memory for MA57: lfact (1932550)
  56 -1.0282001e+00 4.07e-11 4.27e-08  -8.6 6.92e-06  -2.2 1.00e+00 1.00e+00f  1
Reallocating memory for MA57: lfact (2032688)
  57 -1.0282001e+00 1.68e-14 2.46e-10  -8.6 1.20e-07  -2.7 1.00e+00 1.00e+00h  1

Number of Iterations....: 57

                                   (scaled)                 (unscaled)
Objective...............:  -1.0282001024837306e+00   -1.0282001024837306e+00
Dual infeasibility......:   2.4623000322400580e-10    2.4623000322400580e-10
Constraint violation....:   1.6821453497024737e-14    1.6821453497024737e-14
Complementarity.........:   2.5062790376670351e-09    2.5062790376670351e-09
Overall NLP error.......:   2.5062790376670351e-09    2.5062790376670351e-09


Number of objective function evaluations             = 76
Number of objective gradient evaluations             = 58
Number of equality constraint evaluations            = 76
Number of inequality constraint evaluations          = 76
Number of equality constraint Jacobian evaluations   = 58
Number of inequality constraint Jacobian evaluations = 58
Number of Lagrangian Hessian evaluations             = 57
Total CPU secs in IPOPT (w/o function evaluations)   =      9.350
Total CPU secs in NLP function evaluations           =      0.537

EXIT: Optimal Solution Found.

************************ CUTEst statistics ************************


 Package used            :  IPOPT
 Problem                 :  TWIRIMD1  
 # variables             =            1247
 # constraints           =             712
 # objective functions   =        0.1350000E+03
 # objective gradients   =        0.5900000E+02
 # objective Hessians    =        0.5800000E+02
 # Hessian-vector prdct  =        0.0000000E+00
 # constraints functions =        0.1360000E+03
 # constraints gradients =        0.6000000E+02
 # constraints Hessians  =        0.5800000E+02
 Exit code               =               0
 Final f                 =  -0.1028200E+01
 Set up time             =            0.28 seconds
 Solve time              =           25.07 seconds


******************************************************************

System Time =       6.2740001678 s.
